(set-logic ALL)
(set-option :produce-models true)
(declare-sort BoundSet 0)
(declare-sort UnboundSet 0)
(set-option :finite-model-find true)
(declare-fun IsArrogant (BoundSet) Bool)
(declare-fun IsZealous (BoundSet) Bool)
(declare-fun IsProponentOf (BoundSet BoundSet) Bool)
(declare-fun IsSeenAs (BoundSet BoundSet) Bool)
(assert (not (=> (exists ((a BoundSet)) (and (IsArrogant a) (IsZealous a))) (exists ((a BoundSet)) (exists ((c BoundSet)) (exists ((d BoundSet)) (exists ((b BoundSet)) (and (IsProponentOf a d) (IsSeenAs b c)))))))))
(check-sat)
(get-model)